c 0.013031721115112305 (encode time in sec)
p cnf 70 1048
1 2 3 4 0
1 2 -3 4 0
1 -2 3 4 0
1 -2 -3 4 0
-1 2 3 4 0
-1 2 -3 4 0
-1 -2 3 4 0
-1 -2 -3 4 0
5 6 7 8 0
5 6 -7 8 0
5 -6 7 8 0
5 -6 -7 8 0
-5 6 7 8 0
-5 6 -7 8 0
-5 -6 7 8 0
-5 -6 -7 8 0
9 10 11 12 0
9 10 -11 12 0
9 -10 11 12 0
9 -10 -11 12 0
-9 10 11 12 0
-9 10 -11 12 0
-9 -10 11 12 0
-9 -10 -11 12 0
13 14 15 1 2 3 5 6 7 16 0
13 14 15 1 2 3 5 6 -7 17 0
13 14 15 1 2 3 5 -6 7 19 0
13 14 15 1 2 3 5 -6 -7 32 0
13 14 15 1 2 3 -5 6 7 18 0
13 14 15 1 2 3 -5 6 -7 20 0
13 14 15 1 2 3 -5 -6 7 28 0
13 14 15 1 2 3 -5 -6 -7 28 0
13 14 15 1 2 -3 5 6 7 21 0
13 14 15 1 2 -3 5 6 -7 21 0
13 14 15 1 2 -3 5 -6 7 21 0
13 14 15 1 2 -3 5 -6 -7 28 0
13 14 15 1 2 -3 -5 6 7 33 0
13 14 15 1 2 -3 -5 6 -7 34 0
13 14 15 1 2 -3 -5 -6 7 32 0
13 14 15 1 2 -3 -5 -6 -7 28 0
13 14 15 1 -2 3 5 6 7 17 0
13 14 15 1 -2 3 5 6 -7 19 0
13 14 15 1 -2 3 5 -6 7 28 0
13 14 15 1 -2 3 5 -6 -7 34 0
13 14 15 1 -2 3 -5 6 7 34 0
13 14 15 1 -2 3 -5 6 -7 34 0
13 14 15 1 -2 3 -5 -6 7 28 0
13 14 15 1 -2 3 -5 -6 -7 34 0
13 14 15 1 -2 -3 5 6 7 38 0
13 14 15 1 -2 -3 5 6 -7 20 0
13 14 15 1 -2 -3 5 -6 7 18 0
13 14 15 1 -2 -3 5 -6 -7 32 0
13 14 15 1 -2 -3 -5 6 7 28 0
13 14 15 1 -2 -3 -5 6 -7 32 0
13 14 15 1 -2 -3 -5 -6 7 28 0
13 14 15 1 -2 -3 -5 -6 -7 26 0
13 14 15 -1 2 3 5 6 7 24 0
13 14 15 -1 2 3 5 6 -7 32 0
13 14 15 -1 2 3 5 -6 7 34 0
13 14 15 -1 2 3 5 -6 -7 34 0
13 14 15 -1 2 3 -5 6 7 34 0
13 14 15 -1 2 3 -5 6 -7 26 0
13 14 15 -1 2 3 -5 -6 7 26 0
13 14 15 -1 2 3 -5 -6 -7 32 0
13 14 15 -1 2 -3 5 6 7 25 0
13 14 15 -1 2 -3 5 6 -7 34 0
13 14 15 -1 2 -3 5 -6 7 28 0
13 14 15 -1 2 -3 5 -6 -7 28 0
13 14 15 -1 2 -3 -5 6 7 18 0
13 14 15 -1 2 -3 -5 6 -7 26 0
13 14 15 -1 2 -3 -5 -6 7 32 0
13 14 15 -1 2 -3 -5 -6 -7 34 0
13 14 15 -1 -2 3 5 6 7 34 0
13 14 15 -1 -2 3 5 6 -7 33 0
13 14 15 -1 -2 3 5 -6 7 28 0
13 14 15 -1 -2 3 5 -6 -7 26 0
13 14 15 -1 -2 3 -5 6 7 28 0
13 14 15 -1 -2 3 -5 6 -7 18 0
13 14 15 -1 -2 3 -5 -6 7 22 0
13 14 15 -1 -2 3 -5 -6 -7 32 0
13 14 15 -1 -2 -3 5 6 7 35 0
13 14 15 -1 -2 -3 5 6 -7 28 0
13 14 15 -1 -2 -3 5 -6 7 34 0
13 14 15 -1 -2 -3 5 -6 -7 32 0
13 14 15 -1 -2 -3 -5 6 7 34 0
13 14 15 -1 -2 -3 -5 6 -7 34 0
13 14 15 -1 -2 -3 -5 -6 7 28 0
13 14 15 -1 -2 -3 -5 -6 -7 32 0
13 14 -15 1 2 3 5 6 7 33 0
13 14 -15 1 2 3 5 6 -7 18 0
13 14 -15 1 2 3 5 -6 7 19 0
13 14 -15 1 2 3 5 -6 -7 24 0
13 14 -15 1 2 3 -5 6 7 17 0
13 14 -15 1 2 3 -5 6 -7 34 0
13 14 -15 1 2 3 -5 -6 7 28 0
13 14 -15 1 2 3 -5 -6 -7 28 0
13 14 -15 1 2 -3 5 6 7 21 0
13 14 -15 1 2 -3 5 6 -7 21 0
13 14 -15 1 2 -3 5 -6 7 21 0
13 14 -15 1 2 -3 5 -6 -7 35 0
13 14 -15 1 2 -3 -5 6 7 33 0
13 14 -15 1 2 -3 -5 6 -7 34 0
13 14 -15 1 2 -3 -5 -6 7 32 0
13 14 -15 1 2 -3 -5 -6 -7 28 0
13 14 -15 1 -2 3 5 6 7 18 0
13 14 -15 1 -2 3 5 6 -7 35 0
13 14 -15 1 -2 3 5 -6 7 19 0
13 14 -15 1 -2 3 5 -6 -7 34 0
13 14 -15 1 -2 3 -5 6 7 20 0
13 14 -15 1 -2 3 -5 6 -7 34 0
13 14 -15 1 -2 3 -5 -6 7 28 0
13 14 -15 1 -2 3 -5 -6 -7 34 0
13 14 -15 1 -2 -3 5 6 7 35 0
13 14 -15 1 -2 -3 5 6 -7 20 0
13 14 -15 1 -2 -3 5 -6 7 17 0
13 14 -15 1 -2 -3 5 -6 -7 32 0
13 14 -15 1 -2 -3 -5 6 7 28 0
13 14 -15 1 -2 -3 -5 6 -7 32 0
13 14 -15 1 -2 -3 -5 -6 7 28 0
13 14 -15 1 -2 -3 -5 -6 -7 26 0
13 14 -15 -1 2 3 5 6 7 32 0
13 14 -15 -1 2 3 5 6 -7 24 0
13 14 -15 -1 2 3 5 -6 7 20 0
13 14 -15 -1 2 3 5 -6 -7 34 0
13 14 -15 -1 2 3 -5 6 7 34 0
13 14 -15 -1 2 3 -5 6 -7 26 0
13 14 -15 -1 2 3 -5 -6 7 26 0
13 14 -15 -1 2 3 -5 -6 -7 32 0
13 14 -15 -1 2 -3 5 6 7 20 0
13 14 -15 -1 2 -3 5 6 -7 34 0
13 14 -15 -1 2 -3 5 -6 7 28 0
13 14 -15 -1 2 -3 5 -6 -7 28 0
13 14 -15 -1 2 -3 -5 6 7 18 0
13 14 -15 -1 2 -3 -5 6 -7 26 0
13 14 -15 -1 2 -3 -5 -6 7 32 0
13 14 -15 -1 2 -3 -5 -6 -7 34 0
13 14 -15 -1 -2 3 5 6 7 27 0
13 14 -15 -1 -2 3 5 6 -7 23 0
13 14 -15 -1 -2 3 5 -6 7 28 0
13 14 -15 -1 -2 3 5 -6 -7 26 0
13 14 -15 -1 -2 3 -5 6 7 28 0
13 14 -15 -1 -2 3 -5 6 -7 18 0
13 14 -15 -1 -2 3 -5 -6 7 22 0
13 14 -15 -1 -2 3 -5 -6 -7 32 0
13 14 -15 -1 -2 -3 5 6 7 35 0
13 14 -15 -1 -2 -3 5 6 -7 28 0
13 14 -15 -1 -2 -3 5 -6 7 34 0
13 14 -15 -1 -2 -3 5 -6 -7 32 0
13 14 -15 -1 -2 -3 -5 6 7 34 0
13 14 -15 -1 -2 -3 -5 6 -7 34 0
13 14 -15 -1 -2 -3 -5 -6 7 28 0
13 14 -15 -1 -2 -3 -5 -6 -7 32 0
13 -14 15 1 2 3 5 6 7 33 0
13 -14 15 1 2 3 5 6 -7 18 0
13 -14 15 1 2 3 5 -6 7 28 0
13 -14 15 1 2 3 5 -6 -7 32 0
13 -14 15 1 2 3 -5 6 7 18 0
13 -14 15 1 2 3 -5 6 -7 20 0
13 -14 15 1 2 3 -5 -6 7 35 0
13 -14 15 1 2 3 -5 -6 -7 28 0
13 -14 15 1 2 -3 5 6 7 32 0
13 -14 15 1 2 -3 5 6 -7 32 0
13 -14 15 1 2 -3 5 -6 7 32 0
13 -14 15 1 2 -3 5 -6 -7 38 0
13 -14 15 1 2 -3 -5 6 7 36 0
13 -14 15 1 2 -3 -5 6 -7 34 0
13 -14 15 1 2 -3 -5 -6 7 32 0
13 -14 15 1 2 -3 -5 -6 -7 28 0
13 -14 15 1 -2 3 5 6 7 18 0
13 -14 15 1 -2 3 5 6 -7 28 0
13 -14 15 1 -2 3 5 -6 7 28 0
13 -14 15 1 -2 3 5 -6 -7 20 0
13 -14 15 1 -2 3 -5 6 7 34 0
13 -14 15 1 -2 3 -5 6 -7 34 0
13 -14 15 1 -2 3 -5 -6 7 28 0
13 -14 15 1 -2 3 -5 -6 -7 34 0
13 -14 15 1 -2 -3 5 6 7 28 0
13 -14 15 1 -2 -3 5 6 -7 20 0
13 -14 15 1 -2 -3 5 -6 7 18 0
13 -14 15 1 -2 -3 5 -6 -7 32 0
13 -14 15 1 -2 -3 -5 6 7 19 0
13 -14 15 1 -2 -3 -5 6 -7 32 0
13 -14 15 1 -2 -3 -5 -6 7 28 0
13 -14 15 1 -2 -3 -5 -6 -7 26 0
13 -14 15 -1 2 3 5 6 7 32 0
13 -14 15 -1 2 3 5 6 -7 32 0
13 -14 15 -1 2 3 5 -6 7 20 0
13 -14 15 -1 2 3 5 -6 -7 25 0
13 -14 15 -1 2 3 -5 6 7 20 0
13 -14 15 -1 2 3 -5 6 -7 26 0
13 -14 15 -1 2 3 -5 -6 7 26 0
13 -14 15 -1 2 3 -5 -6 -7 32 0
13 -14 15 -1 2 -3 5 6 7 34 0
13 -14 15 -1 2 -3 5 6 -7 27 0
13 -14 15 -1 2 -3 5 -6 7 19 0
13 -14 15 -1 2 -3 5 -6 -7 28 0
13 -14 15 -1 2 -3 -5 6 7 18 0
13 -14 15 -1 2 -3 -5 6 -7 26 0
13 -14 15 -1 2 -3 -5 -6 7 32 0
13 -14 15 -1 2 -3 -5 -6 -7 34 0
13 -14 15 -1 -2 3 5 6 7 34 0
13 -14 15 -1 -2 3 5 6 -7 39 0
13 -14 15 -1 -2 3 5 -6 7 28 0
13 -14 15 -1 -2 3 5 -6 -7 26 0
13 -14 15 -1 -2 3 -5 6 7 28 0
13 -14 15 -1 -2 3 -5 6 -7 18 0
13 -14 15 -1 -2 3 -5 -6 7 22 0
13 -14 15 -1 -2 3 -5 -6 -7 32 0
13 -14 15 -1 -2 -3 5 6 7 28 0
13 -14 15 -1 -2 -3 5 6 -7 28 0
13 -14 15 -1 -2 -3 5 -6 7 20 0
13 -14 15 -1 -2 -3 5 -6 -7 32 0
13 -14 15 -1 -2 -3 -5 6 7 34 0
13 -14 15 -1 -2 -3 -5 6 -7 34 0
13 -14 15 -1 -2 -3 -5 -6 7 28 0
13 -14 15 -1 -2 -3 -5 -6 -7 32 0
13 -14 -15 1 2 3 5 6 7 33 0
13 -14 -15 1 2 3 5 6 -7 18 0
13 -14 -15 1 2 3 5 -6 7 28 0
13 -14 -15 1 2 3 5 -6 -7 32 0
13 -14 -15 1 2 3 -5 6 7 18 0
13 -14 -15 1 2 3 -5 6 -7 34 0
13 -14 -15 1 2 3 -5 -6 7 19 0
13 -14 -15 1 2 3 -5 -6 -7 28 0
13 -14 -15 1 2 -3 5 6 7 32 0
13 -14 -15 1 2 -3 5 6 -7 32 0
13 -14 -15 1 2 -3 5 -6 7 32 0
13 -14 -15 1 2 -3 5 -6 -7 28 0
13 -14 -15 1 2 -3 -5 6 7 36 0
13 -14 -15 1 2 -3 -5 6 -7 34 0
13 -14 -15 1 2 -3 -5 -6 7 32 0
13 -14 -15 1 2 -3 -5 -6 -7 28 0
13 -14 -15 1 -2 3 5 6 7 18 0
13 -14 -15 1 -2 3 5 6 -7 35 0
13 -14 -15 1 -2 3 5 -6 7 19 0
13 -14 -15 1 -2 3 5 -6 -7 20 0
13 -14 -15 1 -2 3 -5 6 7 20 0
13 -14 -15 1 -2 3 -5 6 -7 34 0
13 -14 -15 1 -2 3 -5 -6 7 28 0
13 -14 -15 1 -2 3 -5 -6 -7 34 0
13 -14 -15 1 -2 -3 5 6 7 28 0
13 -14 -15 1 -2 -3 5 6 -7 34 0
13 -14 -15 1 -2 -3 5 -6 7 18 0
13 -14 -15 1 -2 -3 5 -6 -7 21 0
13 -14 -15 1 -2 -3 -5 6 7 35 0
13 -14 -15 1 -2 -3 -5 6 -7 32 0
13 -14 -15 1 -2 -3 -5 -6 7 28 0
13 -14 -15 1 -2 -3 -5 -6 -7 26 0
13 -14 -15 -1 2 3 5 6 7 32 0
13 -14 -15 -1 2 3 5 6 -7 32 0
13 -14 -15 -1 2 3 5 -6 7 20 0
13 -14 -15 -1 2 3 5 -6 -7 20 0
13 -14 -15 -1 2 3 -5 6 7 34 0
13 -14 -15 -1 2 3 -5 6 -7 26 0
13 -14 -15 -1 2 3 -5 -6 7 26 0
13 -14 -15 -1 2 3 -5 -6 -7 32 0
13 -14 -15 -1 2 -3 5 6 7 34 0
13 -14 -15 -1 2 -3 5 6 -7 34 0
13 -14 -15 -1 2 -3 5 -6 7 19 0
13 -14 -15 -1 2 -3 5 -6 -7 19 0
13 -14 -15 -1 2 -3 -5 6 7 18 0
13 -14 -15 -1 2 -3 -5 6 -7 26 0
13 -14 -15 -1 2 -3 -5 -6 7 32 0
13 -14 -15 -1 2 -3 -5 -6 -7 34 0
13 -14 -15 -1 -2 3 5 6 7 34 0
13 -14 -15 -1 -2 3 5 6 -7 23 0
13 -14 -15 -1 -2 3 5 -6 7 30 0
13 -14 -15 -1 -2 3 5 -6 -7 29 0
13 -14 -15 -1 -2 3 -5 6 7 28 0
13 -14 -15 -1 -2 3 -5 6 -7 18 0
13 -14 -15 -1 -2 3 -5 -6 7 22 0
13 -14 -15 -1 -2 3 -5 -6 -7 32 0
13 -14 -15 -1 -2 -3 5 6 7 35 0
13 -14 -15 -1 -2 -3 5 6 -7 35 0
13 -14 -15 -1 -2 -3 5 -6 7 34 0
13 -14 -15 -1 -2 -3 5 -6 -7 32 0
13 -14 -15 -1 -2 -3 -5 6 7 34 0
13 -14 -15 -1 -2 -3 -5 6 -7 34 0
13 -14 -15 -1 -2 -3 -5 -6 7 28 0
13 -14 -15 -1 -2 -3 -5 -6 -7 32 0
-13 14 15 1 2 3 5 6 7 33 0
-13 14 15 1 2 3 5 6 -7 18 0
-13 14 15 1 2 3 5 -6 7 28 0
-13 14 15 1 2 3 5 -6 -7 32 0
-13 14 15 1 2 3 -5 6 7 18 0
-13 14 15 1 2 3 -5 6 -7 20 0
-13 14 15 1 2 3 -5 -6 7 35 0
-13 14 15 1 2 3 -5 -6 -7 28 0
-13 14 15 1 2 -3 5 6 7 32 0
-13 14 15 1 2 -3 5 6 -7 32 0
-13 14 15 1 2 -3 5 -6 7 32 0
-13 14 15 1 2 -3 5 -6 -7 28 0
-13 14 15 1 2 -3 -5 6 7 36 0
-13 14 15 1 2 -3 -5 6 -7 27 0
-13 14 15 1 2 -3 -5 -6 7 21 0
-13 14 15 1 2 -3 -5 -6 -7 28 0
-13 14 15 1 -2 3 5 6 7 18 0
-13 14 15 1 -2 3 5 6 -7 28 0
-13 14 15 1 -2 3 5 -6 7 28 0
-13 14 15 1 -2 3 5 -6 -7 20 0
-13 14 15 1 -2 3 -5 6 7 20 0
-13 14 15 1 -2 3 -5 6 -7 27 0
-13 14 15 1 -2 3 -5 -6 7 28 0
-13 14 15 1 -2 3 -5 -6 -7 34 0
-13 14 15 1 -2 -3 5 6 7 28 0
-13 14 15 1 -2 -3 5 6 -7 34 0
-13 14 15 1 -2 -3 5 -6 7 18 0
-13 14 15 1 -2 -3 5 -6 -7 32 0
-13 14 15 1 -2 -3 -5 6 7 35 0
-13 14 15 1 -2 -3 -5 6 -7 32 0
-13 14 15 1 -2 -3 -5 -6 7 28 0
-13 14 15 1 -2 -3 -5 -6 -7 26 0
-13 14 15 -1 2 3 5 6 7 32 0
-13 14 15 -1 2 3 5 6 -7 32 0
-13 14 15 -1 2 3 5 -6 7 34 0
-13 14 15 -1 2 3 5 -6 -7 34 0
-13 14 15 -1 2 3 -5 6 7 20 0
-13 14 15 -1 2 3 -5 6 -7 26 0
-13 14 15 -1 2 3 -5 -6 7 29 0
-13 14 15 -1 2 3 -5 -6 -7 32 0
-13 14 15 -1 2 -3 5 6 7 34 0
-13 14 15 -1 2 -3 5 6 -7 34 0
-13 14 15 -1 2 -3 5 -6 7 28 0
-13 14 15 -1 2 -3 5 -6 -7 19 0
-13 14 15 -1 2 -3 -5 6 7 18 0
-13 14 15 -1 2 -3 -5 6 -7 31 0
-13 14 15 -1 2 -3 -5 -6 7 32 0
-13 14 15 -1 2 -3 -5 -6 -7 34 0
-13 14 15 -1 -2 3 5 6 7 34 0
-13 14 15 -1 -2 3 5 6 -7 33 0
-13 14 15 -1 -2 3 5 -6 7 28 0
-13 14 15 -1 -2 3 5 -6 -7 29 0
-13 14 15 -1 -2 3 -5 6 7 28 0
-13 14 15 -1 -2 3 -5 6 -7 18 0
-13 14 15 -1 -2 3 -5 -6 7 22 0
-13 14 15 -1 -2 3 -5 -6 -7 32 0
-13 14 15 -1 -2 -3 5 6 7 35 0
-13 14 15 -1 -2 -3 5 6 -7 19 0
-13 14 15 -1 -2 -3 5 -6 7 34 0
-13 14 15 -1 -2 -3 5 -6 -7 21 0
-13 14 15 -1 -2 -3 -5 6 7 34 0
-13 14 15 -1 -2 -3 -5 6 -7 34 0
-13 14 15 -1 -2 -3 -5 -6 7 28 0
-13 14 15 -1 -2 -3 -5 -6 -7 32 0
-13 14 -15 1 2 3 5 6 7 33 0
-13 14 -15 1 2 3 5 6 -7 18 0
-13 14 -15 1 2 3 5 -6 7 28 0
-13 14 -15 1 2 3 5 -6 -7 32 0
-13 14 -15 1 2 3 -5 6 7 18 0
-13 14 -15 1 2 3 -5 6 -7 34 0
-13 14 -15 1 2 3 -5 -6 7 28 0
-13 14 -15 1 2 3 -5 -6 -7 19 0
-13 14 -15 1 2 -3 5 6 7 32 0
-13 14 -15 1 2 -3 5 6 -7 32 0
-13 14 -15 1 2 -3 5 -6 7 32 0
-13 14 -15 1 2 -3 5 -6 -7 28 0
-13 14 -15 1 2 -3 -5 6 7 33 0
-13 14 -15 1 2 -3 -5 6 -7 34 0
-13 14 -15 1 2 -3 -5 -6 7 21 0
-13 14 -15 1 2 -3 -5 -6 -7 19 0
-13 14 -15 1 -2 3 5 6 7 18 0
-13 14 -15 1 -2 3 5 6 -7 28 0
-13 14 -15 1 -2 3 5 -6 7 28 0
-13 14 -15 1 -2 3 5 -6 -7 34 0
-13 14 -15 1 -2 3 -5 6 7 34 0
-13 14 -15 1 -2 3 -5 6 -7 34 0
-13 14 -15 1 -2 3 -5 -6 7 35 0
-13 14 -15 1 -2 3 -5 -6 -7 34 0
-13 14 -15 1 -2 -3 5 6 7 28 0
-13 14 -15 1 -2 -3 5 6 -7 34 0
-13 14 -15 1 -2 -3 5 -6 7 18 0
-13 14 -15 1 -2 -3 5 -6 -7 21 0
-13 14 -15 1 -2 -3 -5 6 7 28 0
-13 14 -15 1 -2 -3 -5 6 -7 24 0
-13 14 -15 1 -2 -3 -5 -6 7 35 0
-13 14 -15 1 -2 -3 -5 -6 -7 26 0
-13 14 -15 -1 2 3 5 6 7 32 0
-13 14 -15 -1 2 3 5 6 -7 32 0
-13 14 -15 -1 2 3 5 -6 7 34 0
-13 14 -15 -1 2 3 5 -6 -7 34 0
-13 14 -15 -1 2 3 -5 6 7 20 0
-13 14 -15 -1 2 3 -5 6 -7 31 0
-13 14 -15 -1 2 3 -5 -6 7 29 0
-13 14 -15 -1 2 3 -5 -6 -7 32 0
-13 14 -15 -1 2 -3 5 6 7 34 0
-13 14 -15 -1 2 -3 5 6 -7 34 0
-13 14 -15 -1 2 -3 5 -6 7 28 0
-13 14 -15 -1 2 -3 5 -6 -7 28 0
-13 14 -15 -1 2 -3 -5 6 7 17 0
-13 14 -15 -1 2 -3 -5 6 -7 31 0
-13 14 -15 -1 2 -3 -5 -6 7 32 0
-13 14 -15 -1 2 -3 -5 -6 -7 34 0
-13 14 -15 -1 -2 3 5 6 7 34 0
-13 14 -15 -1 -2 3 5 6 -7 33 0
-13 14 -15 -1 -2 3 5 -6 7 28 0
-13 14 -15 -1 -2 3 5 -6 -7 31 0
-13 14 -15 -1 -2 3 -5 6 7 19 0
-13 14 -15 -1 -2 3 -5 6 -7 18 0
-13 14 -15 -1 -2 3 -5 -6 7 22 0
-13 14 -15 -1 -2 3 -5 -6 -7 32 0
-13 14 -15 -1 -2 -3 5 6 7 28 0
-13 14 -15 -1 -2 -3 5 6 -7 35 0
-13 14 -15 -1 -2 -3 5 -6 7 25 0
-13 14 -15 -1 -2 -3 5 -6 -7 32 0
-13 14 -15 -1 -2 -3 -5 6 7 20 0
-13 14 -15 -1 -2 -3 -5 6 -7 34 0
-13 14 -15 -1 -2 -3 -5 -6 7 28 0
-13 14 -15 -1 -2 -3 -5 -6 -7 32 0
-13 -14 15 1 2 3 5 6 7 33 0
-13 -14 15 1 2 3 5 6 -7 18 0
-13 -14 15 1 2 3 5 -6 7 28 0
-13 -14 15 1 2 3 5 -6 -7 32 0
-13 -14 15 1 2 3 -5 6 7 18 0
-13 -14 15 1 2 3 -5 6 -7 34 0
-13 -14 15 1 2 3 -5 -6 7 28 0
-13 -14 15 1 2 3 -5 -6 -7 35 0
-13 -14 15 1 2 -3 5 6 7 32 0
-13 -14 15 1 2 -3 5 6 -7 32 0
-13 -14 15 1 2 -3 5 -6 7 32 0
-13 -14 15 1 2 -3 5 -6 -7 28 0
-13 -14 15 1 2 -3 -5 6 7 33 0
-13 -14 15 1 2 -3 -5 6 -7 34 0
-13 -14 15 1 2 -3 -5 -6 7 32 0
-13 -14 15 1 2 -3 -5 -6 -7 19 0
-13 -14 15 1 -2 3 5 6 7 18 0
-13 -14 15 1 -2 3 5 6 -7 28 0
-13 -14 15 1 -2 3 5 -6 7 28 0
-13 -14 15 1 -2 3 5 -6 -7 34 0
-13 -14 15 1 -2 3 -5 6 7 34 0
-13 -14 15 1 -2 3 -5 6 -7 34 0
-13 -14 15 1 -2 3 -5 -6 7 38 0
-13 -14 15 1 -2 3 -5 -6 -7 34 0
-13 -14 15 1 -2 -3 5 6 7 28 0
-13 -14 15 1 -2 -3 5 6 -7 34 0
-13 -14 15 1 -2 -3 5 -6 7 18 0
-13 -14 15 1 -2 -3 5 -6 -7 32 0
-13 -14 15 1 -2 -3 -5 6 7 28 0
-13 -14 15 1 -2 -3 -5 6 -7 32 0
-13 -14 15 1 -2 -3 -5 -6 7 38 0
-13 -14 15 1 -2 -3 -5 -6 -7 31 0
-13 -14 15 -1 2 3 5 6 7 32 0
-13 -14 15 -1 2 3 5 6 -7 32 0
-13 -14 15 -1 2 3 5 -6 7 34 0
-13 -14 15 -1 2 3 5 -6 -7 34 0
-13 -14 15 -1 2 3 -5 6 7 34 0
-13 -14 15 -1 2 3 -5 6 -7 37 0
-13 -14 15 -1 2 3 -5 -6 7 37 0
-13 -14 15 -1 2 3 -5 -6 -7 32 0
-13 -14 15 -1 2 -3 5 6 7 34 0
-13 -14 15 -1 2 -3 5 6 -7 34 0
-13 -14 15 -1 2 -3 5 -6 7 28 0
-13 -14 15 -1 2 -3 5 -6 -7 28 0
-13 -14 15 -1 2 -3 -5 6 7 18 0
-13 -14 15 -1 2 -3 -5 6 -7 29 0
-13 -14 15 -1 2 -3 -5 -6 7 24 0
-13 -14 15 -1 2 -3 -5 -6 -7 34 0
-13 -14 15 -1 -2 3 5 6 7 34 0
-13 -14 15 -1 -2 3 5 6 -7 33 0
-13 -14 15 -1 -2 3 5 -6 7 28 0
-13 -14 15 -1 -2 3 5 -6 -7 29 0
-13 -14 15 -1 -2 3 -5 6 7 19 0
-13 -14 15 -1 -2 3 -5 6 -7 18 0
-13 -14 15 -1 -2 3 -5 -6 7 22 0
-13 -14 15 -1 -2 3 -5 -6 -7 32 0
-13 -14 15 -1 -2 -3 5 6 7 28 0
-13 -14 15 -1 -2 -3 5 6 -7 28 0
-13 -14 15 -1 -2 -3 5 -6 7 34 0
-13 -14 15 -1 -2 -3 5 -6 -7 21 0
-13 -14 15 -1 -2 -3 -5 6 7 20 0
-13 -14 15 -1 -2 -3 -5 6 -7 34 0
-13 -14 15 -1 -2 -3 -5 -6 7 28 0
-13 -14 15 -1 -2 -3 -5 -6 -7 32 0
-13 -14 -15 1 2 3 5 6 7 33 0
-13 -14 -15 1 2 3 5 6 -7 18 0
-13 -14 -15 1 2 3 5 -6 7 28 0
-13 -14 -15 1 2 3 5 -6 -7 32 0
-13 -14 -15 1 2 3 -5 6 7 18 0
-13 -14 -15 1 2 3 -5 6 -7 34 0
-13 -14 -15 1 2 3 -5 -6 7 28 0
-13 -14 -15 1 2 3 -5 -6 -7 35 0
-13 -14 -15 1 2 -3 5 6 7 32 0
-13 -14 -15 1 2 -3 5 6 -7 32 0
-13 -14 -15 1 2 -3 5 -6 7 32 0
-13 -14 -15 1 2 -3 5 -6 -7 28 0
-13 -14 -15 1 2 -3 -5 6 7 33 0
-13 -14 -15 1 2 -3 -5 6 -7 34 0
-13 -14 -15 1 2 -3 -5 -6 7 32 0
-13 -14 -15 1 2 -3 -5 -6 -7 28 0
-13 -14 -15 1 -2 3 5 6 7 18 0
-13 -14 -15 1 -2 3 5 6 -7 28 0
-13 -14 -15 1 -2 3 5 -6 7 28 0
-13 -14 -15 1 -2 3 5 -6 -7 34 0
-13 -14 -15 1 -2 3 -5 6 7 34 0
-13 -14 -15 1 -2 3 -5 6 -7 34 0
-13 -14 -15 1 -2 3 -5 -6 7 28 0
-13 -14 -15 1 -2 3 -5 -6 -7 27 0
-13 -14 -15 1 -2 -3 5 6 7 28 0
-13 -14 -15 1 -2 -3 5 6 -7 34 0
-13 -14 -15 1 -2 -3 5 -6 7 18 0
-13 -14 -15 1 -2 -3 5 -6 -7 32 0
-13 -14 -15 1 -2 -3 -5 6 7 28 0
-13 -14 -15 1 -2 -3 -5 6 -7 32 0
-13 -14 -15 1 -2 -3 -5 -6 7 28 0
-13 -14 -15 1 -2 -3 -5 -6 -7 37 0
-13 -14 -15 -1 2 3 5 6 7 32 0
-13 -14 -15 -1 2 3 5 6 -7 32 0
-13 -14 -15 -1 2 3 5 -6 7 34 0
-13 -14 -15 -1 2 3 5 -6 -7 34 0
-13 -14 -15 -1 2 3 -5 6 7 34 0
-13 -14 -15 -1 2 3 -5 6 -7 26 0
-13 -14 -15 -1 2 3 -5 -6 7 26 0
-13 -14 -15 -1 2 3 -5 -6 -7 24 0
-13 -14 -15 -1 2 -3 5 6 7 34 0
-13 -14 -15 -1 2 -3 5 6 -7 34 0
-13 -14 -15 -1 2 -3 5 -6 7 28 0
-13 -14 -15 -1 2 -3 5 -6 -7 28 0
-13 -14 -15 -1 2 -3 -5 6 7 18 0
-13 -14 -15 -1 2 -3 -5 6 -7 26 0
-13 -14 -15 -1 2 -3 -5 -6 7 32 0
-13 -14 -15 -1 2 -3 -5 -6 -7 27 0
-13 -14 -15 -1 -2 3 5 6 7 34 0
-13 -14 -15 -1 -2 3 5 6 -7 33 0
-13 -14 -15 -1 -2 3 5 -6 7 28 0
-13 -14 -15 -1 -2 3 5 -6 -7 26 0
-13 -14 -15 -1 -2 3 -5 6 7 28 0
-13 -14 -15 -1 -2 3 -5 6 -7 17 0
-13 -14 -15 -1 -2 3 -5 -6 7 22 0
-13 -14 -15 -1 -2 3 -5 -6 -7 24 0
-13 -14 -15 -1 -2 -3 5 6 7 28 0
-13 -14 -15 -1 -2 -3 5 6 -7 28 0
-13 -14 -15 -1 -2 -3 5 -6 7 34 0
-13 -14 -15 -1 -2 -3 5 -6 -7 32 0
-13 -14 -15 -1 -2 -3 -5 6 7 20 0
-13 -14 -15 -1 -2 -3 -5 6 -7 27 0
-13 -14 -15 -1 -2 -3 -5 -6 7 30 0
-13 -14 -15 -1 -2 -3 -5 -6 -7 24 0
40 41 42 9 10 11 13 14 15 43 0
40 41 42 9 10 11 13 14 -15 43 0
40 41 42 9 10 11 13 -14 15 56 0
40 41 42 9 10 11 13 -14 -15 61 0
40 41 42 9 10 11 -13 14 15 61 0
40 41 42 9 10 11 -13 14 -15 44 0
40 41 42 9 10 11 -13 -14 15 61 0
40 41 42 9 10 11 -13 -14 -15 60 0
40 41 42 9 10 -11 13 14 15 45 0
40 41 42 9 10 -11 13 14 -15 45 0
40 41 42 9 10 -11 13 -14 15 60 0
40 41 42 9 10 -11 13 -14 -15 61 0
40 41 42 9 10 -11 -13 14 15 46 0
40 41 42 9 10 -11 -13 14 -15 60 0
40 41 42 9 10 -11 -13 -14 15 46 0
40 41 42 9 10 -11 -13 -14 -15 56 0
40 41 42 9 -10 11 13 14 15 45 0
40 41 42 9 -10 11 13 14 -15 62 0
40 41 42 9 -10 11 13 -14 15 56 0
40 41 42 9 -10 11 13 -14 -15 47 0
40 41 42 9 -10 11 -13 14 15 60 0
40 41 42 9 -10 11 -13 14 -15 56 0
40 41 42 9 -10 11 -13 -14 15 60 0
40 41 42 9 -10 11 -13 -14 -15 63 0
40 41 42 9 -10 -11 13 14 15 55 0
40 41 42 9 -10 -11 13 14 -15 61 0
40 41 42 9 -10 -11 13 -14 15 60 0
40 41 42 9 -10 -11 13 -14 -15 63 0
40 41 42 9 -10 -11 -13 14 15 46 0
40 41 42 9 -10 -11 -13 14 -15 60 0
40 41 42 9 -10 -11 -13 -14 15 56 0
40 41 42 9 -10 -11 -13 -14 -15 48 0
40 41 42 -9 10 11 13 14 15 51 0
40 41 42 -9 10 11 13 14 -15 62 0
40 41 42 -9 10 11 13 -14 15 61 0
40 41 42 -9 10 11 13 -14 -15 60 0
40 41 42 -9 10 11 -13 14 15 61 0
40 41 42 -9 10 11 -13 14 -15 60 0
40 41 42 -9 10 11 -13 -14 15 56 0
40 41 42 -9 10 11 -13 -14 -15 61 0
40 41 42 -9 10 -11 13 14 15 65 0
40 41 42 -9 10 -11 13 14 -15 48 0
40 41 42 -9 10 -11 13 -14 15 56 0
40 41 42 -9 10 -11 13 -14 -15 46 0
40 41 42 -9 10 -11 -13 14 15 61 0
40 41 42 -9 10 -11 -13 14 -15 61 0
40 41 42 -9 10 -11 -13 -14 15 61 0
40 41 42 -9 10 -11 -13 -14 -15 56 0
40 41 42 -9 -10 11 13 14 15 70 0
40 41 42 -9 -10 11 13 14 -15 61 0
40 41 42 -9 -10 11 13 -14 15 61 0
40 41 42 -9 -10 11 13 -14 -15 61 0
40 41 42 -9 -10 11 -13 14 15 56 0
40 41 42 -9 -10 11 -13 14 -15 60 0
40 41 42 -9 -10 11 -13 -14 15 61 0
40 41 42 -9 -10 11 -13 -14 -15 60 0
40 41 42 -9 -10 -11 13 14 15 49 0
40 41 42 -9 -10 -11 13 14 -15 44 0
40 41 42 -9 -10 -11 13 -14 15 61 0
40 41 42 -9 -10 -11 13 -14 -15 60 0
40 41 42 -9 -10 -11 -13 14 15 48 0
40 41 42 -9 -10 -11 -13 14 -15 60 0
40 41 42 -9 -10 -11 -13 -14 15 47 0
40 41 42 -9 -10 -11 -13 -14 -15 56 0
40 41 -42 9 10 11 13 14 15 47 0
40 41 -42 9 10 11 13 14 -15 47 0
40 41 -42 9 10 11 13 -14 15 51 0
40 41 -42 9 10 11 13 -14 -15 61 0
40 41 -42 9 10 11 -13 14 15 61 0
40 41 -42 9 10 11 -13 14 -15 44 0
40 41 -42 9 10 11 -13 -14 15 61 0
40 41 -42 9 10 11 -13 -14 -15 60 0
40 41 -42 9 10 -11 13 14 15 60 0
40 41 -42 9 10 -11 13 14 -15 60 0
40 41 -42 9 10 -11 13 -14 15 45 0
40 41 -42 9 10 -11 13 -14 -15 61 0
40 41 -42 9 10 -11 -13 14 15 46 0
40 41 -42 9 10 -11 -13 14 -15 60 0
40 41 -42 9 10 -11 -13 -14 15 46 0
40 41 -42 9 10 -11 -13 -14 -15 56 0
40 41 -42 9 -10 11 13 14 15 60 0
40 41 -42 9 -10 11 13 14 -15 67 0
40 41 -42 9 -10 11 13 -14 15 50 0
40 41 -42 9 -10 11 13 -14 -15 47 0
40 41 -42 9 -10 11 -13 14 15 60 0
40 41 -42 9 -10 11 -13 14 -15 56 0
40 41 -42 9 -10 11 -13 -14 15 60 0
40 41 -42 9 -10 11 -13 -14 -15 63 0
40 41 -42 9 -10 -11 13 14 15 61 0
40 41 -42 9 -10 -11 13 14 -15 55 0
40 41 -42 9 -10 -11 13 -14 15 60 0
40 41 -42 9 -10 -11 13 -14 -15 63 0
40 41 -42 9 -10 -11 -13 14 15 46 0
40 41 -42 9 -10 -11 -13 14 -15 60 0
40 41 -42 9 -10 -11 -13 -14 15 56 0
40 41 -42 9 -10 -11 -13 -14 -15 48 0
40 41 -42 -9 10 11 13 14 15 56 0
40 41 -42 -9 10 11 13 14 -15 67 0
40 41 -42 -9 10 11 13 -14 15 61 0
40 41 -42 -9 10 11 13 -14 -15 60 0
40 41 -42 -9 10 11 -13 14 15 61 0
40 41 -42 -9 10 11 -13 14 -15 60 0
40 41 -42 -9 10 11 -13 -14 15 56 0
40 41 -42 -9 10 11 -13 -14 -15 61 0
40 41 -42 -9 10 -11 13 14 15 52 0
40 41 -42 -9 10 -11 13 14 -15 48 0
40 41 -42 -9 10 -11 13 -14 15 56 0
40 41 -42 -9 10 -11 13 -14 -15 46 0
40 41 -42 -9 10 -11 -13 14 15 61 0
40 41 -42 -9 10 -11 -13 14 -15 61 0
40 41 -42 -9 10 -11 -13 -14 15 61 0
40 41 -42 -9 10 -11 -13 -14 -15 56 0
40 41 -42 -9 -10 11 13 14 15 46 0
40 41 -42 -9 -10 11 13 14 -15 52 0
40 41 -42 -9 -10 11 13 -14 15 61 0
40 41 -42 -9 -10 11 13 -14 -15 61 0
40 41 -42 -9 -10 11 -13 14 15 56 0
40 41 -42 -9 -10 11 -13 14 -15 60 0
40 41 -42 -9 -10 11 -13 -14 15 61 0
40 41 -42 -9 -10 11 -13 -14 -15 60 0
40 41 -42 -9 -10 -11 13 14 15 66 0
40 41 -42 -9 -10 -11 13 14 -15 50 0
40 41 -42 -9 -10 -11 13 -14 15 61 0
40 41 -42 -9 -10 -11 13 -14 -15 60 0
40 41 -42 -9 -10 -11 -13 14 15 48 0
40 41 -42 -9 -10 -11 -13 14 -15 60 0
40 41 -42 -9 -10 -11 -13 -14 15 47 0
40 41 -42 -9 -10 -11 -13 -14 -15 56 0
40 -41 42 9 10 11 13 14 15 47 0
40 -41 42 9 10 11 13 14 -15 47 0
40 -41 42 9 10 11 13 -14 15 56 0
40 -41 42 9 10 11 13 -14 -15 55 0
40 -41 42 9 10 11 -13 14 15 52 0
40 -41 42 9 10 11 -13 14 -15 44 0
40 -41 42 9 10 11 -13 -14 15 61 0
40 -41 42 9 10 11 -13 -14 -15 60 0
40 -41 42 9 10 -11 13 14 15 60 0
40 -41 42 9 10 -11 13 14 -15 60 0
40 -41 42 9 10 -11 13 -14 15 60 0
40 -41 42 9 10 -11 13 -14 -15 55 0
40 -41 42 9 10 -11 -13 14 15 46 0
40 -41 42 9 10 -11 -13 14 -15 60 0
40 -41 42 9 10 -11 -13 -14 15 46 0
40 -41 42 9 10 -11 -13 -14 -15 56 0
40 -41 42 9 -10 11 13 14 15 60 0
40 -41 42 9 -10 11 13 14 -15 56 0
40 -41 42 9 -10 11 13 -14 15 50 0
40 -41 42 9 -10 11 13 -14 -15 47 0
40 -41 42 9 -10 11 -13 14 15 60 0
40 -41 42 9 -10 11 -13 14 -15 56 0
40 -41 42 9 -10 11 -13 -14 15 60 0
40 -41 42 9 -10 11 -13 -14 -15 63 0
40 -41 42 9 -10 -11 13 14 15 61 0
40 -41 42 9 -10 -11 13 14 -15 61 0
40 -41 42 9 -10 -11 13 -14 15 45 0
40 -41 42 9 -10 -11 13 -14 -15 64 0
40 -41 42 9 -10 -11 -13 14 15 46 0
40 -41 42 9 -10 -11 -13 14 -15 60 0
40 -41 42 9 -10 -11 -13 -14 15 56 0
40 -41 42 9 -10 -11 -13 -14 -15 48 0
40 -41 42 -9 10 11 13 14 15 56 0
40 -41 42 -9 10 11 13 14 -15 56 0
40 -41 42 -9 10 11 13 -14 15 65 0
40 -41 42 -9 10 11 13 -14 -15 60 0
40 -41 42 -9 10 11 -13 14 15 61 0
40 -41 42 -9 10 11 -13 14 -15 60 0
40 -41 42 -9 10 11 -13 -14 15 56 0
40 -41 42 -9 10 11 -13 -14 -15 61 0
40 -41 42 -9 10 -11 13 14 15 61 0
40 -41 42 -9 10 -11 13 14 -15 48 0
40 -41 42 -9 10 -11 13 -14 15 67 0
40 -41 42 -9 10 -11 13 -14 -15 46 0
40 -41 42 -9 10 -11 -13 14 15 61 0
40 -41 42 -9 10 -11 -13 14 -15 61 0
40 -41 42 -9 10 -11 -13 -14 15 61 0
40 -41 42 -9 10 -11 -13 -14 -15 56 0
40 -41 42 -9 -10 11 13 14 15 46 0
40 -41 42 -9 -10 11 13 14 -15 65 0
40 -41 42 -9 -10 11 13 -14 15 61 0
40 -41 42 -9 -10 11 13 -14 -15 61 0
40 -41 42 -9 -10 11 -13 14 15 56 0
40 -41 42 -9 -10 11 -13 14 -15 60 0
40 -41 42 -9 -10 11 -13 -14 15 61 0
40 -41 42 -9 -10 11 -13 -14 -15 60 0
40 -41 42 -9 -10 -11 13 14 15 49 0
40 -41 42 -9 -10 -11 13 14 -15 53 0
40 -41 42 -9 -10 -11 13 -14 15 61 0
40 -41 42 -9 -10 -11 13 -14 -15 60 0
40 -41 42 -9 -10 -11 -13 14 15 48 0
40 -41 42 -9 -10 -11 -13 14 -15 60 0
40 -41 42 -9 -10 -11 -13 -14 15 47 0
40 -41 42 -9 -10 -11 -13 -14 -15 56 0
40 -41 -42 9 10 11 13 14 15 47 0
40 -41 -42 9 10 11 13 14 -15 47 0
40 -41 -42 9 10 11 13 -14 15 56 0
40 -41 -42 9 10 11 13 -14 -15 61 0
40 -41 -42 9 10 11 -13 14 15 65 0
40 -41 -42 9 10 11 -13 14 -15 44 0
40 -41 -42 9 10 11 -13 -14 15 61 0
40 -41 -42 9 10 11 -13 -14 -15 60 0
40 -41 -42 9 10 -11 13 14 15 60 0
40 -41 -42 9 10 -11 13 14 -15 60 0
40 -41 -42 9 10 -11 13 -14 15 60 0
40 -41 -42 9 10 -11 13 -14 -15 61 0
40 -41 -42 9 10 -11 -13 14 15 70 0
40 -41 -42 9 10 -11 -13 14 -15 60 0
40 -41 -42 9 10 -11 -13 -14 15 46 0
40 -41 -42 9 10 -11 -13 -14 -15 56 0
40 -41 -42 9 -10 11 13 14 15 60 0
40 -41 -42 9 -10 11 13 14 -15 56 0
40 -41 -42 9 -10 11 13 -14 15 56 0
40 -41 -42 9 -10 11 13 -14 -15 43 0
40 -41 -42 9 -10 11 -13 14 15 58 0
40 -41 -42 9 -10 11 -13 14 -15 56 0
40 -41 -42 9 -10 11 -13 -14 15 60 0
40 -41 -42 9 -10 11 -13 -14 -15 63 0
40 -41 -42 9 -10 -11 13 14 15 61 0
40 -41 -42 9 -10 -11 13 14 -15 61 0
40 -41 -42 9 -10 -11 13 -14 15 60 0
40 -41 -42 9 -10 -11 13 -14 -15 68 0
40 -41 -42 9 -10 -11 -13 14 15 49 0
40 -41 -42 9 -10 -11 -13 14 -15 60 0
40 -41 -42 9 -10 -11 -13 -14 15 56 0
40 -41 -42 9 -10 -11 -13 -14 -15 48 0
40 -41 -42 -9 10 11 13 14 15 56 0
40 -41 -42 -9 10 11 13 14 -15 56 0
40 -41 -42 -9 10 11 13 -14 15 52 0
40 -41 -42 -9 10 11 13 -14 -15 45 0
40 -41 -42 -9 10 11 -13 14 15 61 0
40 -41 -42 -9 10 11 -13 14 -15 60 0
40 -41 -42 -9 10 11 -13 -14 15 56 0
40 -41 -42 -9 10 11 -13 -14 -15 61 0
40 -41 -42 -9 10 -11 13 14 15 61 0
40 -41 -42 -9 10 -11 13 14 -15 48 0
40 -41 -42 -9 10 -11 13 -14 15 62 0
40 -41 -42 -9 10 -11 13 -14 -15 66 0
40 -41 -42 -9 10 -11 -13 14 15 61 0
40 -41 -42 -9 10 -11 -13 14 -15 61 0
40 -41 -42 -9 10 -11 -13 -14 15 61 0
40 -41 -42 -9 10 -11 -13 -14 -15 56 0
40 -41 -42 -9 -10 11 13 14 15 46 0
40 -41 -42 -9 -10 11 13 14 -15 61 0
40 -41 -42 -9 -10 11 13 -14 15 55 0
40 -41 -42 -9 -10 11 13 -14 -15 61 0
40 -41 -42 -9 -10 11 -13 14 15 56 0
40 -41 -42 -9 -10 11 -13 14 -15 60 0
40 -41 -42 -9 -10 11 -13 -14 15 61 0
40 -41 -42 -9 -10 11 -13 -14 -15 60 0
40 -41 -42 -9 -10 -11 13 14 15 46 0
40 -41 -42 -9 -10 -11 13 14 -15 44 0
40 -41 -42 -9 -10 -11 13 -14 15 52 0
40 -41 -42 -9 -10 -11 13 -14 -15 60 0
40 -41 -42 -9 -10 -11 -13 14 15 48 0
40 -41 -42 -9 -10 -11 -13 14 -15 60 0
40 -41 -42 -9 -10 -11 -13 -14 15 47 0
40 -41 -42 -9 -10 -11 -13 -14 -15 56 0
-40 41 42 9 10 11 13 14 15 47 0
-40 41 42 9 10 11 13 14 -15 47 0
-40 41 42 9 10 11 13 -14 15 56 0
-40 41 42 9 10 11 13 -14 -15 61 0
-40 41 42 9 10 11 -13 14 15 61 0
-40 41 42 9 10 11 -13 14 -15 54 0
-40 41 42 9 10 11 -13 -14 15 52 0
-40 41 42 9 10 11 -13 -14 -15 60 0
-40 41 42 9 10 -11 13 14 15 60 0
-40 41 42 9 10 -11 13 14 -15 60 0
-40 41 42 9 10 -11 13 -14 15 60 0
-40 41 42 9 10 -11 13 -14 -15 61 0
-40 41 42 9 10 -11 -13 14 15 46 0
-40 41 42 9 10 -11 -13 14 -15 58 0
-40 41 42 9 10 -11 -13 -14 15 46 0
-40 41 42 9 10 -11 -13 -14 -15 56 0
-40 41 42 9 -10 11 13 14 15 60 0
-40 41 42 9 -10 11 13 14 -15 56 0
-40 41 42 9 -10 11 13 -14 15 56 0
-40 41 42 9 -10 11 13 -14 -15 47 0
-40 41 42 9 -10 11 -13 14 15 58 0
-40 41 42 9 -10 11 -13 14 -15 50 0
-40 41 42 9 -10 11 -13 -14 15 60 0
-40 41 42 9 -10 11 -13 -14 -15 63 0
-40 41 42 9 -10 -11 13 14 15 61 0
-40 41 42 9 -10 -11 13 14 -15 61 0
-40 41 42 9 -10 -11 13 -14 15 60 0
-40 41 42 9 -10 -11 13 -14 -15 63 0
-40 41 42 9 -10 -11 -13 14 15 49 0
-40 41 42 9 -10 -11 -13 14 -15 60 0
-40 41 42 9 -10 -11 -13 -14 15 56 0
-40 41 42 9 -10 -11 -13 -14 -15 48 0
-40 41 42 -9 10 11 13 14 15 56 0
-40 41 42 -9 10 11 13 14 -15 56 0
-40 41 42 -9 10 11 13 -14 15 61 0
-40 41 42 -9 10 11 13 -14 -15 60 0
-40 41 42 -9 10 11 -13 14 15 55 0
-40 41 42 -9 10 11 -13 14 -15 60 0
-40 41 42 -9 10 11 -13 -14 15 56 0
-40 41 42 -9 10 11 -13 -14 -15 61 0
-40 41 42 -9 10 -11 13 14 15 61 0
-40 41 42 -9 10 -11 13 14 -15 48 0
-40 41 42 -9 10 -11 13 -14 15 56 0
-40 41 42 -9 10 -11 13 -14 -15 59 0
-40 41 42 -9 10 -11 -13 14 15 52 0
-40 41 42 -9 10 -11 -13 14 -15 61 0
-40 41 42 -9 10 -11 -13 -14 15 61 0
-40 41 42 -9 10 -11 -13 -14 -15 56 0
-40 41 42 -9 -10 11 13 14 15 46 0
-40 41 42 -9 -10 11 13 14 -15 61 0
-40 41 42 -9 -10 11 13 -14 15 61 0
-40 41 42 -9 -10 11 13 -14 -15 65 0
-40 41 42 -9 -10 11 -13 14 15 62 0
-40 41 42 -9 -10 11 -13 14 -15 60 0
-40 41 42 -9 -10 11 -13 -14 15 61 0
-40 41 42 -9 -10 11 -13 -14 -15 60 0
-40 41 42 -9 -10 -11 13 14 15 46 0
-40 41 42 -9 -10 -11 13 14 -15 48 0
-40 41 42 -9 -10 -11 13 -14 15 65 0
-40 41 42 -9 -10 -11 13 -14 -15 60 0
-40 41 42 -9 -10 -11 -13 14 15 48 0
-40 41 42 -9 -10 -11 -13 14 -15 60 0
-40 41 42 -9 -10 -11 -13 -14 15 47 0
-40 41 42 -9 -10 -11 -13 -14 -15 56 0
-40 41 -42 9 10 11 13 14 15 47 0
-40 41 -42 9 10 11 13 14 -15 47 0
-40 41 -42 9 10 11 13 -14 15 56 0
-40 41 -42 9 10 11 13 -14 -15 61 0
-40 41 -42 9 10 11 -13 14 15 61 0
-40 41 -42 9 10 11 -13 14 -15 48 0
-40 41 -42 9 10 11 -13 -14 15 52 0
-40 41 -42 9 10 11 -13 -14 -15 58 0
-40 41 -42 9 10 -11 13 14 15 60 0
-40 41 -42 9 10 -11 13 14 -15 60 0
-40 41 -42 9 10 -11 13 -14 15 60 0
-40 41 -42 9 10 -11 13 -14 -15 61 0
-40 41 -42 9 10 -11 -13 14 15 46 0
-40 41 -42 9 10 -11 -13 14 -15 58 0
-40 41 -42 9 10 -11 -13 -14 15 66 0
-40 41 -42 9 10 -11 -13 -14 -15 56 0
-40 41 -42 9 -10 11 13 14 15 60 0
-40 41 -42 9 -10 11 13 14 -15 56 0
-40 41 -42 9 -10 11 13 -14 15 56 0
-40 41 -42 9 -10 11 13 -14 -15 47 0
-40 41 -42 9 -10 11 -13 14 15 60 0
-40 41 -42 9 -10 11 -13 14 -15 50 0
-40 41 -42 9 -10 11 -13 -14 15 60 0
-40 41 -42 9 -10 11 -13 -14 -15 63 0
-40 41 -42 9 -10 -11 13 14 15 61 0
-40 41 -42 9 -10 -11 13 14 -15 61 0
-40 41 -42 9 -10 -11 13 -14 15 60 0
-40 41 -42 9 -10 -11 13 -14 -15 63 0
-40 41 -42 9 -10 -11 -13 14 15 66 0
-40 41 -42 9 -10 -11 -13 14 -15 45 0
-40 41 -42 9 -10 -11 -13 -14 15 56 0
-40 41 -42 9 -10 -11 -13 -14 -15 48 0
-40 41 -42 -9 10 11 13 14 15 56 0
-40 41 -42 -9 10 11 13 14 -15 56 0
-40 41 -42 -9 10 11 13 -14 15 61 0
-40 41 -42 -9 10 11 13 -14 -15 60 0
-40 41 -42 -9 10 11 -13 14 15 61 0
-40 41 -42 -9 10 11 -13 14 -15 58 0
-40 41 -42 -9 10 11 -13 -14 15 56 0
-40 41 -42 -9 10 11 -13 -14 -15 61 0
-40 41 -42 -9 10 -11 13 14 15 61 0
-40 41 -42 -9 10 -11 13 14 -15 48 0
-40 41 -42 -9 10 -11 13 -14 15 56 0
-40 41 -42 -9 10 -11 13 -14 -15 46 0
-40 41 -42 -9 10 -11 -13 14 15 65 0
-40 41 -42 -9 10 -11 -13 14 -15 65 0
-40 41 -42 -9 10 -11 -13 -14 15 61 0
-40 41 -42 -9 10 -11 -13 -14 -15 56 0
-40 41 -42 -9 -10 11 13 14 15 46 0
-40 41 -42 -9 -10 11 13 14 -15 61 0
-40 41 -42 -9 -10 11 13 -14 15 61 0
-40 41 -42 -9 -10 11 13 -14 -15 52 0
-40 41 -42 -9 -10 11 -13 14 15 67 0
-40 41 -42 -9 -10 11 -13 14 -15 60 0
-40 41 -42 -9 -10 11 -13 -14 15 61 0
-40 41 -42 -9 -10 11 -13 -14 -15 60 0
-40 41 -42 -9 -10 -11 13 14 15 46 0
-40 41 -42 -9 -10 -11 13 14 -15 44 0
-40 41 -42 -9 -10 -11 13 -14 15 61 0
-40 41 -42 -9 -10 -11 13 -14 -15 45 0
-40 41 -42 -9 -10 -11 -13 14 15 48 0
-40 41 -42 -9 -10 -11 -13 14 -15 60 0
-40 41 -42 -9 -10 -11 -13 -14 15 47 0
-40 41 -42 -9 -10 -11 -13 -14 -15 56 0
-40 -41 42 9 10 11 13 14 15 47 0
-40 -41 42 9 10 11 13 14 -15 47 0
-40 -41 42 9 10 11 13 -14 15 56 0
-40 -41 42 9 10 11 13 -14 -15 61 0
-40 -41 42 9 10 11 -13 14 15 61 0
-40 -41 42 9 10 11 -13 14 -15 44 0
-40 -41 42 9 10 11 -13 -14 15 52 0
-40 -41 42 9 10 11 -13 -14 -15 58 0
-40 -41 42 9 10 -11 13 14 15 60 0
-40 -41 42 9 10 -11 13 14 -15 60 0
-40 -41 42 9 10 -11 13 -14 15 60 0
-40 -41 42 9 10 -11 13 -14 -15 61 0
-40 -41 42 9 10 -11 -13 14 15 46 0
-40 -41 42 9 10 -11 -13 14 -15 60 0
-40 -41 42 9 10 -11 -13 -14 15 59 0
-40 -41 42 9 10 -11 -13 -14 -15 62 0
-40 -41 42 9 -10 11 13 14 15 60 0
-40 -41 42 9 -10 11 13 14 -15 56 0
-40 -41 42 9 -10 11 13 -14 15 56 0
-40 -41 42 9 -10 11 13 -14 -15 47 0
-40 -41 42 9 -10 11 -13 14 15 60 0
-40 -41 42 9 -10 11 -13 14 -15 56 0
-40 -41 42 9 -10 11 -13 -14 15 45 0
-40 -41 42 9 -10 11 -13 -14 -15 57 0
-40 -41 42 9 -10 -11 13 14 15 61 0
-40 -41 42 9 -10 -11 13 14 -15 61 0
-40 -41 42 9 -10 -11 13 -14 15 60 0
-40 -41 42 9 -10 -11 13 -14 -15 63 0
-40 -41 42 9 -10 -11 -13 14 15 46 0
-40 -41 42 9 -10 -11 -13 14 -15 60 0
-40 -41 42 9 -10 -11 -13 -14 15 51 0
-40 -41 42 9 -10 -11 -13 -14 -15 48 0
-40 -41 42 -9 10 11 13 14 15 56 0
-40 -41 42 -9 10 11 13 14 -15 56 0
-40 -41 42 -9 10 11 13 -14 15 61 0
-40 -41 42 -9 10 11 13 -14 -15 60 0
-40 -41 42 -9 10 11 -13 14 15 61 0
-40 -41 42 -9 10 11 -13 14 -15 58 0
-40 -41 42 -9 10 11 -13 -14 15 51 0
-40 -41 42 -9 10 11 -13 -14 -15 61 0
-40 -41 42 -9 10 -11 13 14 15 61 0
-40 -41 42 -9 10 -11 13 14 -15 48 0
-40 -41 42 -9 10 -11 13 -14 15 56 0
-40 -41 42 -9 10 -11 13 -14 -15 46 0
-40 -41 42 -9 10 -11 -13 14 15 61 0
-40 -41 42 -9 10 -11 -13 14 -15 52 0
-40 -41 42 -9 10 -11 -13 -14 15 52 0
-40 -41 42 -9 10 -11 -13 -14 -15 56 0
-40 -41 42 -9 -10 11 13 14 15 46 0
-40 -41 42 -9 -10 11 13 14 -15 61 0
-40 -41 42 -9 -10 11 13 -14 15 61 0
-40 -41 42 -9 -10 11 13 -14 -15 61 0
-40 -41 42 -9 -10 11 -13 14 15 56 0
-40 -41 42 -9 -10 11 -13 14 -15 45 0
-40 -41 42 -9 -10 11 -13 -14 15 65 0
-40 -41 42 -9 -10 11 -13 -14 -15 60 0
-40 -41 42 -9 -10 -11 13 14 15 46 0
-40 -41 42 -9 -10 -11 13 14 -15 44 0
-40 -41 42 -9 -10 -11 13 -14 15 61 0
-40 -41 42 -9 -10 -11 13 -14 -15 60 0
-40 -41 42 -9 -10 -11 -13 14 15 48 0
-40 -41 42 -9 -10 -11 -13 14 -15 58 0
-40 -41 42 -9 -10 -11 -13 -14 15 43 0
-40 -41 42 -9 -10 -11 -13 -14 -15 56 0
-40 -41 -42 9 10 11 13 14 15 47 0
-40 -41 -42 9 10 11 13 14 -15 47 0
-40 -41 -42 9 10 11 13 -14 15 56 0
-40 -41 -42 9 10 11 13 -14 -15 61 0
-40 -41 -42 9 10 11 -13 14 15 61 0
-40 -41 -42 9 10 11 -13 14 -15 44 0
-40 -41 -42 9 10 11 -13 -14 15 61 0
-40 -41 -42 9 10 11 -13 -14 -15 60 0
-40 -41 -42 9 10 -11 13 14 15 60 0
-40 -41 -42 9 10 -11 13 14 -15 60 0
-40 -41 -42 9 10 -11 13 -14 15 60 0
-40 -41 -42 9 10 -11 13 -14 -15 61 0
-40 -41 -42 9 10 -11 -13 14 15 46 0
-40 -41 -42 9 10 -11 -13 14 -15 60 0
-40 -41 -42 9 10 -11 -13 -14 15 46 0
-40 -41 -42 9 10 -11 -13 -14 -15 67 0
-40 -41 -42 9 -10 11 13 14 15 60 0
-40 -41 -42 9 -10 11 13 14 -15 56 0
-40 -41 -42 9 -10 11 13 -14 15 56 0
-40 -41 -42 9 -10 11 13 -14 -15 47 0
-40 -41 -42 9 -10 11 -13 14 15 60 0
-40 -41 -42 9 -10 11 -13 14 -15 56 0
-40 -41 -42 9 -10 11 -13 -14 15 60 0
-40 -41 -42 9 -10 11 -13 -14 -15 69 0
-40 -41 -42 9 -10 -11 13 14 15 61 0
-40 -41 -42 9 -10 -11 13 14 -15 61 0
-40 -41 -42 9 -10 -11 13 -14 15 60 0
-40 -41 -42 9 -10 -11 13 -14 -15 63 0
-40 -41 -42 9 -10 -11 -13 14 15 46 0
-40 -41 -42 9 -10 -11 -13 14 -15 60 0
-40 -41 -42 9 -10 -11 -13 -14 15 56 0
-40 -41 -42 9 -10 -11 -13 -14 -15 48 0
-40 -41 -42 -9 10 11 13 14 15 56 0
-40 -41 -42 -9 10 11 13 14 -15 56 0
-40 -41 -42 -9 10 11 13 -14 15 61 0
-40 -41 -42 -9 10 11 13 -14 -15 60 0
-40 -41 -42 -9 10 11 -13 14 15 61 0
-40 -41 -42 -9 10 11 -13 14 -15 60 0
-40 -41 -42 -9 10 11 -13 -14 15 56 0
-40 -41 -42 -9 10 11 -13 -14 -15 55 0
-40 -41 -42 -9 10 -11 13 14 15 61 0
-40 -41 -42 -9 10 -11 13 14 -15 48 0
-40 -41 -42 -9 10 -11 13 -14 15 56 0
-40 -41 -42 -9 10 -11 13 -14 -15 46 0
-40 -41 -42 -9 10 -11 -13 14 15 61 0
-40 -41 -42 -9 10 -11 -13 14 -15 61 0
-40 -41 -42 -9 10 -11 -13 -14 15 65 0
-40 -41 -42 -9 10 -11 -13 -14 -15 51 0
-40 -41 -42 -9 -10 11 13 14 15 46 0
-40 -41 -42 -9 -10 11 13 14 -15 61 0
-40 -41 -42 -9 -10 11 13 -14 15 61 0
-40 -41 -42 -9 -10 11 13 -14 -15 61 0
-40 -41 -42 -9 -10 11 -13 14 15 56 0
-40 -41 -42 -9 -10 11 -13 14 -15 60 0
-40 -41 -42 -9 -10 11 -13 -14 15 52 0
-40 -41 -42 -9 -10 11 -13 -14 -15 45 0
-40 -41 -42 -9 -10 -11 13 14 15 46 0
-40 -41 -42 -9 -10 -11 13 14 -15 44 0
-40 -41 -42 -9 -10 -11 13 -14 15 61 0
-40 -41 -42 -9 -10 -11 13 -14 -15 60 0
-40 -41 -42 -9 -10 -11 -13 14 15 48 0
-40 -41 -42 -9 -10 -11 -13 14 -15 58 0
-40 -41 -42 -9 -10 -11 -13 -14 15 47 0
-40 -41 -42 -9 -10 -11 -13 -14 -15 51 0
